unsat
(a11_10$2@ a11_9$0@ a11_8$2@ a1_6$3@ a1_6$0@ obs-10-6 obs-9-7 obs-8-3 obs-7-9 obs-7-3 obs-6-7 obs-6-6 obs-5-6 obs-5-3 obs-4-7 obs-4-6 obs-2-8 obs-1-8 obs-2-4)
(error "line 402470 column 10: model is not available")
